% définition des types énumérés 
nom = {Alex,Billie,Chris,Dora,Emile,Franck,Gisele,Horst,Iris,Jean,Karl,Lisa,Marc,Niels,Ophelie};
instrument = {Guitare,Batterie,Violon,Piano,Basse};
ville = {Angers,Nantes};
style = {Rock, Metal,Jazz,Pop,Classique,Funk,RnB,Rap,Punk, Electro};

heures_hebdo = [3, 3, 2, 3, 5, 3, 3, 3, 2, 2, 3, 3, 3, 2, 3];
les_niveaux = [2, 1, 5, 2, 2, 3, 5, 5, 5, 2, 2, 4, 2, 3, 3];
heures_max=[2, 1, 1, 1, 3, 1, 1, 3, 2, 1, 3, 2, 1, 2, 3];
heures_min=[4, 5, 3, 4, 6, 5, 5, 3, 3, 5, 5, 6, 3, 5, 4];
niveau_min=[1, 1, 3, 1, 1, 1, 1, 5, 4, 1, 1, 2, 1, 2, 3];
niveau_max=[4, 2, 5, 5, 3, 3, 5, 5, 5, 3, 3, 5, 3, 4, 5];
nbStyleMin = [1,1,1,1,1,1,1,1,1,1,1,1,1,1,1,];

% villes 
les_villes = [Angers,Nantes,Angers,Nantes,Angers,Angers,Nantes,Nantes,Angers,Nantes,Nantes,Angers,Nantes,Nantes,Nantes];

% instruments
les_instruments = [Basse,Batterie,Guitare,Batterie,Violon,Guitare,Piano,Violon,Piano,Piano,Basse,Basse,Guitare,Basse,Batterie];

% les styles
les_styles = [
  {Rock, Metal,Jazz},
  {Jazz,Pop,Classique, Rock, Funk},
  {RnB, Rap,Classique},
  {Pop, Punk, Electro},
  {Classique, Metal, Jazz},
  {Punk, Rock, Classique, Jazz},
  {Pop, Rock, Jazz, Classique},
  {Classique},
  {Classique, Jazz},
  {Jazz, Electro},
  {Jazz, Rap, Funk, Rock, Electro},
  {Metal, Pop, Electro, Jazz,Classique},
  {Jazz, Funk},
  {Rap, Funk, Rock, Electro},
  {Metal, Pop, Funk, Jazz,Classique},
];


